NAME          BLANK   
ROWS
 N  OBJROW
 L  R0000000
COLUMNS
    C0000000  OBJROW     -149.         R0000000  128.        
    C0000001  OBJROW     -780.         R0000000  449.        
    C0000002  OBJROW     -134.         R0000000  601.        
    C0000003  OBJROW     -36.          R0000000  450.        
    C0000004  OBJROW     -258.         R0000000  76.         
    C0000005  OBJROW     -539.         R0000000  29.         
    C0000006  OBJROW     -2.           R0000000  197.        
    C0000007  OBJROW     -259.         R0000000  647.        
    C0000008  OBJROW     -606.         R0000000  36.         
    C0000009  OBJROW     -195.         R0000000  421.        
    C0000010  OBJROW     -987.         R0000000  109.        
    C0000011  OBJROW     -743.         R0000000  580.        
    C0000012  OBJROW     -780.         R0000000  30.         
    C0000013  OBJROW     -7.           R0000000  685.        
    C0000014  OBJROW     -154.         R0000000  174.        
    C0000015  OBJROW     -575.         R0000000  600.        
    C0000016  OBJROW     -206.         R0000000  788.        
    C0000017  OBJROW     -837.         R0000000  461.        
    C0000018  OBJROW     -163.         R0000000  675.        
RHS
    RHS       R0000000  13865.      
BOUNDS
 BV BOUND     C0000000  1.          
 BV BOUND     C0000001  1.          
 BV BOUND     C0000002  1.          
 BV BOUND     C0000003  1.          
 BV BOUND     C0000004  1.          
 BV BOUND     C0000005  1.          
 BV BOUND     C0000006  1.          
 BV BOUND     C0000007  1.          
 BV BOUND     C0000008  1.          
 BV BOUND     C0000009  1.          
 BV BOUND     C0000010  1.          
 BV BOUND     C0000011  1.          
 BV BOUND     C0000012  1.          
 BV BOUND     C0000013  1.          
 BV BOUND     C0000014  1.          
 BV BOUND     C0000015  1.          
 BV BOUND     C0000016  1.          
 BV BOUND     C0000017  1.          
 BV BOUND     C0000018  1.          
ENDATA
